
Gurobi 9.1.2 (win64, Java) logging started Sat Nov  6 09:54:30 2021

Academic license - for non-commercial use only - expires 2022-10-30
Gurobi Optimizer version 9.1.2 build v9.1.2rc0 (win64)
Thread count: 6 physical cores, 12 logical processors, using up to 12 threads
Optimize a model with 50 rows, 400 columns and 800 nonzeros
Model fingerprint: 0x8892e936
Variable types: 0 continuous, 400 integer (400 binary)
Coefficient statistics:
  Matrix range     [1e+00, 1e+03]
  Objective range  [4e+02, 1e+03]
  Bounds range     [1e+00, 1e+00]
  RHS range        [1e+00, 2e+03]
Found heuristic solution: objective 19741.000000
Presolve removed 5 rows and 156 columns
Presolve time: 0.00s
Presolved: 45 rows, 244 columns, 488 nonzeros
Variable types: 0 continuous, 244 integer (244 binary)
Presolved: 45 rows, 244 columns, 488 nonzeros


Root relaxation: objective 2.159554e+04, 118 iterations, 0.00 seconds

    Nodes    |    Current Node    |     Objective Bounds      |     Work
 Expl Unexpl |  Obj  Depth IntInf | Incumbent    BestBd   Gap | It/Node Time

     0     0 21595.5367    0    8 19741.0000 21595.5367  9.39%     -    0s
H    0     0                    20983.000000 21595.5367  2.92%     -    0s
H    0     0                    21076.000000 21595.5367  2.47%     -    0s
     0     0 21530.0001    0   13 21076.0000 21530.0001  2.15%     -    0s
     0     0 21529.6738    0   18 21076.0000 21529.6738  2.15%     -    0s
     0     0 21529.0001    0   11 21076.0000 21529.0001  2.15%     -    0s
H    0     0                    21414.000000 21529.0001  0.54%     -    0s
     0     0 21529.0001    0   13 21414.0000 21529.0001  0.54%     -    0s
     0     0 21529.0001    0   15 21414.0000 21529.0001  0.54%     -    0s
     0     0 21529.0001    0    9 21414.0000 21529.0001  0.54%     -    0s
     0     2 21529.0001    0    9 21414.0000 21529.0001  0.54%     -    0s
H 1496  1095                    21507.000069 21529.0001  0.10%   7.1    2s
  9164  4302 21528.8292   28   38 21507.0001 21529.0001  0.10%  13.3    5s
H14093  5122                    21517.000004 21529.0001  0.06%  17.0    7s
H14121  2368                    21525.000038 21529.0001  0.02%  17.0    8s
 18145  3483 21528.3171   32   18 21525.0000 21529.0000  0.02%  21.0   10s
 32356  1199     cutoff   65      21525.0000 21528.0001  0.01%  24.3   15s

Cutting planes:
  Gomory: 11
  Cover: 458
  Clique: 1
  MIR: 57
  StrongCG: 52
  Flow cover: 10
  Zero half: 5

Explored 42655 nodes (1162363 simplex iterations) in 18.54 seconds
Thread count was 12 (of 12 available processors)

Solution count 7: 21525 21517 21507 ... 19741

Optimal solution found (tolerance 1.00e-04)
Best objective 2.152500000000e+04, best bound 2.152700000000e+04, gap 0.0093%
